%chk=opt_freq.chk
%nprocshared=4
%mem=32GB
#p B3LYP/6-31G(d,p) Int=UltraFine Opt=tight SCRF=(PCM,Solvent=EthylEthanoate)

cluster1_middle_structure Opt

0 1
N         -0.51000       -1.97800       -2.17800
C          2.28900        2.65900       -2.40100
C          2.24200       -5.03800       -3.27300
O          1.08600       -3.40300       -1.84900
C          3.46300        2.60300       -3.32000
C          2.30700       -4.06900       -2.03100
N         -3.77300       -1.49800        1.10400
O          1.18300       -1.95800       -3.66000
C          2.44900       -4.92300       -0.68800
N         -0.64300       -0.61100        4.58100
O         -2.80600       -1.25100       -0.94700
C          3.54000       -3.13700       -2.14100
N          3.12900        2.07300        3.56900
O         -3.77000        0.54500        0.01600
C          0.66200       -2.40000       -2.68800
N          2.74900        2.63000       -0.97900
O         -2.54300       -0.25100        3.38600
C         -1.33200       -1.09800       -2.91800
O         -2.73800       -0.65900        5.61000
C         -1.95000       -1.81900       -4.12600
O          1.63700        0.89800        4.60300
C         -2.68600       -0.85700       -5.03900
O          2.01700        3.03400        5.34500
C         -4.09700       -0.81500       -5.04100
O          3.52700        3.17200        0.88300
C         -4.75500       -0.03000       -6.02000
O          3.11500        4.85700       -0.64100
C         -4.07700        0.58900       -7.04800
O          2.18500        0.26500       -2.28200
C         -2.70200        0.66200       -6.94600
C         -2.00800       -0.08500       -5.99700
C         -2.24100       -0.32000       -1.98200
C         -3.48300       -0.62000        0.09100
C         -4.50700       -1.12200        2.37600
C         -4.57300       -2.39900        3.20500
C         -3.90700       -0.01300        3.14800
C         -2.04300       -0.57600        4.61300
C          0.30400       -0.80400        5.64500
C          1.35200       -1.90600        5.26900
C          0.94100        0.58500        5.90200
C          2.17100        2.09500        4.57400
C          4.06400        3.21600        3.30400
C          5.48800        2.76800        3.33400
C          3.64600        4.03600        2.03300
C          3.08500        3.69900       -0.22800
C          1.39300        1.40900       -2.66000
H          1.57100       -5.84700       -2.94000
H          1.68100        3.52600       -2.66700
H          2.98400        2.67100       -4.30100
H          4.22400        3.33800       -3.03100
H          3.91500        1.60300       -3.29100
H          0.49500        1.61300       -2.05400
H          1.06600        1.34000       -3.70500
H          3.22700       -5.42700       -3.56000
H          1.88800       -4.62000       -4.21500
H          2.40800       -4.17400        0.11200
H          1.54700       -5.51100       -0.47800
H          3.31700       -5.59500       -0.71900
H          4.48600       -3.68400       -2.08400
H          3.46000       -2.62500       -3.11400
H          3.51400       -2.45400       -1.28200
H         -0.70000       -2.28500       -1.23100
H         -0.64700       -0.32600       -3.29400
H         -1.12400       -2.25900       -4.69900
H         -2.42800       -2.75800       -3.80100
H         -4.71100       -1.39900       -4.36200
H         -5.83800       -0.03500       -6.14900
H         -4.65900        1.10200       -7.80200
H         -2.09500        1.22100       -7.64000
H         -0.93300       -0.04900       -5.92500
H         -1.69700        0.47600       -1.46400
H         -3.09700        0.14800       -2.48000
H         -3.60900       -2.48800        0.98200
H         -5.48300       -0.73700        2.05600
H         -3.66600       -2.95000        3.45300
H         -5.02300       -2.13500        4.17100
H         -5.31200       -3.08600        2.77100
H         -4.02600        0.94800        2.63500
H         -4.50700        0.10100        4.05800
H         -0.24200       -0.18700        3.75400
H         -0.29800       -1.11500        6.50500
H          1.74000       -1.64300        4.27400
H          2.14600       -2.10100        6.00300
H          0.91400       -2.88700        5.03800
H          0.16200        1.28200        6.21900
H          1.69700        0.42600        6.67400
H          3.12500        1.19300        3.07100
H          3.94800        3.94800        4.10900
H          5.72600        2.15200        2.46600
H          6.18000        3.61900        3.34700
H          5.77200        2.21800        4.25100
H          2.61500        4.37100        2.18300
H          4.35400        4.83200        1.79600
H          2.77500        1.71200       -0.54400
H          2.04300       -0.45000       -2.91900
